certificates/rado_a14_c38_N43.drat
-39 -43 0
d -39 -3 -43 0
15 -35 -42 -43 0
5 -41 0
-35 -5 -42 -43 0
-5 -42 -43 0
d -35 -5 -42 -43 0
-42 -43 0
d -5 -42 -43 0
d 15 -35 -42 -43 0
5 39 0
3 -43 0
-5 -43 0
d -11 -5 -43 0
-43 0
-3 -5 0
-5 0
37 0
11 0
-41 0
39 0
9 0
3 0
-7 0
-33 0
-15 0
-35 0
-13 0
2 0
1 0
4 0
0
